71 300 118 136 155 168 152 120 142 136 145 121 182 168 181 181 185 188 109 190 108 185 162 129 113 187 174 142 142 112 178 133 187 196 169 141 163 188 161 104 123 173 192 171 140 172 117 191 126 193 146 134 178 107 129 191 194 103 199 102 115 176 135 101 171 104 108 133 158 135 104 147 174 